n_res = 4;
rcap = [18, 20, 78, 77];
rtype = [1, 1, 2, 2];
n_tasks = 12;
modes = [ {1, 2, 3}, {4, 5, 6}, {7, 8, 9}, {10, 11, 12}, {13, 14, 15}, {16, 17, 18}, {19, 20, 21}, {22, 23, 24}, {25, 26, 27}, {28, 29, 30}, {31, 32, 33}, {34, 35, 36} ];
succ = [ {4, 5, 8}, {6, 8}, {4, 7, 8}, {6, 10, 12}, {6, 7, 10}, {11}, {9}, {9, 10}, {11, 12}, {}, {}, {} ];
n_opt = 36;
dur = [2, 3, 10, 4, 7, 7, 2, 7, 8, 4, 7, 8, 4, 7, 9, 5, 8, 9, 6, 6, 8, 5, 5, 8, 2, 2, 10, 1, 6, 9, 2, 3, 6, 6, 6, 7];
rreq = [|  7,  6,  6,  2,  2,  2,  1,  1,  1,  5,  5,  3, 10,  8,  5,  9,  6,  4,  2,  2,  2,  7,  6,  6,  6,  7,  5,  6,  5,  3,  8,  7,  4,  6,  6,  5
        |  8,  8,  8,  4,  3,  2,  4,  2,  2,  5,  5,  3, 10,  9,  8,  5,  3,  2,  5,  5,  1,  8,  9,  6,  9,  9,  9,  6,  5,  5,  5,  5,  4,  4,  4,  3
        |  0,  9,  8,  0,  7,  0,  9,  0,  3,  1,  0,  0,  7,  6,  0,  0,  7,  5,  8,  0,  0,  6,  0,  7,  4,  0,  0,  0,  5,  3,  0,  9,  8,  5,  0,  5
        |  9,  0,  0, 10,  0,  8,  0,  1,  0,  0,  7,  6,  0,  0,  8,  8,  0,  0,  0,  6,  5,  0,  7,  0,  0,  2,  2,  6,  0,  0,  8,  0,  0,  0,  5,  0 |];
